Maximize
  0 x0 - 15 x1 + 0 x2 + 42 x3 - 12 x4 + 0 x5 - 13 x6 + 0 x7 + 0 x8 + 0 x9
   + 11 x10 - 29 x11 + 12 x12 - 35 x13 + 0 x14 + 0 x15 + 0 x16 - 17 x17
   + 11 x18 + 0 x19 + 0 x20 + 0 x21 - 34 x22 + 24 x23 + 13 x24 - 30 x25
   + 0 x26 + 20 x27 - 5 x28 + 0 x29 + 0 x30 + 0 x31 - 46 x32 + 0 x33
   + 0 x34 + 0 x35 + 0 x36 + 45 x37 + 0 x38 + 0 x39 + 43 x40 - 8 x41
   + 38 x42 - x43 - 32 x44 + 0 x45 + 0 x46 + 0 x47 + 26 x48 + 0 x49 + 0 x50
   + 0 x51 + 34 x52 + 0 x53 - 47 x54 - 42 x55 + 0 x56 - 30 x57 - 15 x58
   + 19 x59 - 31 x60 + 0 x61 + 0 x62 + 0 x63 + 0 x64 - 27 x65 + 47 x66
   + 15 x67 - 19 x68 + 0 x69 - 32 x70 + 0 x71 - 20 x72 + 0 x73 + 0 x74
   + 0 x75 + 0 x76 + 0 x77 - 18 x78 + x79 - 29 x80 + 0 x81 + 41 x82 + 0 x83
   + 0 x84 + 14 x85 + 43 x86 - 15 x87 + 0 x88 + 0 x89 + [ - 37 x0 ^2
   - 14 x0 * x1 - 58 x0 * x4 + 86 x0 * x8 + 80 x0 * x17 + 76 x0 * x19
   - 92 x0 * x21 - 40 x0 * x22 - 44 x0 * x24 + 10 x0 * x26 + 72 x0 * x27
   + 28 x0 * x29 - 10 x0 * x30 + 56 x0 * x33 - 92 x0 * x34 + 44 x0 * x35
   + 10 x0 * x36 + 56 x0 * x38 + 52 x0 * x41 + 16 x0 * x45 - 24 x0 * x46
   + 72 x0 * x47 + 42 x0 * x51 - 62 x0 * x52 - 88 x0 * x53 - 98 x0 * x54
   - 26 x0 * x58 + 80 x0 * x63 + 52 x0 * x64 - 90 x0 * x66 - 36 x0 * x67
   + 96 x0 * x68 - 18 x0 * x69 + 74 x0 * x71 + 42 x0 * x74 - 98 x0 * x75
   + 78 x0 * x76 + 54 x0 * x80 + 48 x0 * x83 - 92 x0 * x84 + 68 x0 * x85
   + 44 x0 * x86 - 70 x0 * x87 - 80 x0 * x88 + 80 x1 * x2 - 62 x1 * x4
   + 8 x1 * x8 - 46 x1 * x9 - 20 x1 * x11 + 86 x1 * x13 - 8 x1 * x15
   - 8 x1 * x16 - 88 x1 * x17 + 12 x1 * x18 - 84 x1 * x19 + 78 x1 * x20
   + 16 x1 * x24 + 6 x1 * x25 + 34 x1 * x29 + 58 x1 * x30 + 76 x1 * x31
   - 80 x1 * x32 - 26 x1 * x33 - 84 x1 * x34 + 50 x1 * x37 - 72 x1 * x39
   - 20 x1 * x41 + 54 x1 * x42 + 4 x1 * x44 - 98 x1 * x45 + 56 x1 * x47
   - 2 x1 * x52 + 58 x1 * x58 - 86 x1 * x61 + 76 x1 * x63 - 34 x1 * x65
   + 90 x1 * x66 + 58 x1 * x67 - 38 x1 * x70 + 22 x1 * x71 - 22 x1 * x74
   - 54 x1 * x79 + 48 x1 * x81 + 92 x1 * x88 - 92 x2 * x5 - 40 x2 * x6
   - 14 x2 * x9 + 10 x2 * x12 - 78 x2 * x17 - 82 x2 * x18 - 76 x2 * x20
   + 40 x2 * x21 - 74 x2 * x26 - 34 x2 * x27 - 46 x2 * x29 - 66 x2 * x32
   + 76 x2 * x38 - 14 x2 * x41 + 98 x2 * x44 - 38 x2 * x45 - 94 x2 * x48
   + 84 x2 * x51 - 30 x2 * x52 - 62 x2 * x57 - 80 x2 * x58 + 96 x2 * x59
   + 62 x2 * x63 + 36 x2 * x67 + 24 x2 * x68 - 54 x2 * x69 + 8 x2 * x70
   - 14 x2 * x73 - 22 x2 * x74 + 72 x2 * x75 + 10 x2 * x76 - 88 x2 * x77
   - 68 x2 * x78 - 10 x2 * x79 - 36 x2 * x80 - 64 x2 * x82 + 86 x2 * x85
   - 72 x2 * x87 - 48 x2 * x88 - 58 x2 * x89 + 64 x3 * x7 + 70 x3 * x9
   - 6 x3 * x10 - 56 x3 * x11 + 34 x3 * x14 - 10 x3 * x15 + 8 x3 * x17
   - 46 x3 * x21 - 70 x3 * x24 - 78 x3 * x25 + 34 x3 * x26 - 54 x3 * x27
   - 30 x3 * x28 + 22 x3 * x32 + 58 x3 * x34 + 96 x3 * x42 - 94 x3 * x43
   + 46 x3 * x44 + 94 x3 * x46 + 70 x3 * x47 + 8 x3 * x48 + 80 x3 * x50
   - 24 x3 * x51 - 96 x3 * x53 + 8 x3 * x56 - 14 x3 * x57 - 52 x3 * x59
   + 2 x3 * x60 - 66 x3 * x61 - 56 x3 * x62 - 40 x3 * x63 + 96 x3 * x65
   + 96 x3 * x66 - 18 x3 * x69 + 32 x3 * x70 - 78 x3 * x71 + 18 x3 * x72
   - 28 x3 * x73 - 52 x3 * x74 - 46 x3 * x75 + 8 x3 * x81 - 26 x3 * x82
   - 6 x3 * x85 + 62 x3 * x87 - 92 x3 * x88 + 44 x3 * x89 - 98 x4 * x13
   - 66 x4 * x14 - 64 x4 * x18 - 32 x4 * x19 + 64 x4 * x20 - 72 x4 * x21
   + 80 x4 * x22 + 32 x4 * x24 + 78 x4 * x27 + 86 x4 * x31 - 20 x4 * x34
   + 50 x4 * x35 + 74 x4 * x36 + 44 x4 * x37 - 94 x4 * x39 + 38 x4 * x40
   - 98 x4 * x41 - 96 x4 * x43 + 86 x4 * x44 + 52 x4 * x45 + 62 x4 * x46
   - 98 x4 * x47 + 34 x4 * x49 - 36 x4 * x50 - 32 x4 * x54 + 16 x4 * x56
   + 48 x4 * x60 - 94 x4 * x62 + 54 x4 * x63 - 86 x4 * x64 - 18 x4 * x67
   - 8 x4 * x68 + 44 x4 * x69 + 4 x4 * x70 + 64 x4 * x71 - 8 x4 * x72
   - 28 x4 * x75 - 82 x4 * x76 - 18 x4 * x78 - 60 x4 * x79 + 80 x4 * x80
   + 30 x4 * x82 - 24 x4 * x87 - 14 x5 ^2 + 8 x5 * x6 - 58 x5 * x7
   + 76 x5 * x8 + 12 x5 * x10 + 98 x5 * x11 - 28 x5 * x12 - 78 x5 * x14
   - 4 x5 * x15 - 80 x5 * x16 - 46 x5 * x18 + 90 x5 * x20 - 96 x5 * x22
   + 66 x5 * x28 + 42 x5 * x29 - 80 x5 * x30 - 22 x5 * x31 + 50 x5 * x33
   + 18 x5 * x35 + 38 x5 * x37 + 66 x5 * x39 + 12 x5 * x42 - 32 x5 * x43
   - 24 x5 * x44 + 62 x5 * x47 + 14 x5 * x48 + 66 x5 * x49 - 24 x5 * x53
   - 94 x5 * x54 + 82 x5 * x55 + 48 x5 * x56 - 70 x5 * x57 - 60 x5 * x58
   - 96 x5 * x59 - 60 x5 * x62 + 52 x5 * x65 - 80 x5 * x66 - 62 x5 * x70
   + 10 x5 * x71 + 86 x5 * x80 - 64 x5 * x86 - 60 x5 * x88 - 29 x6 ^2
   - 2 x6 * x8 + 60 x6 * x10 - 98 x6 * x11 - 68 x6 * x14 - 44 x6 * x15
   - 38 x6 * x17 - 18 x6 * x21 + 6 x6 * x22 - 10 x6 * x23 - 98 x6 * x24
   + 74 x6 * x31 - 20 x6 * x32 - 14 x6 * x35 + 84 x6 * x37 - 86 x6 * x39
   - 56 x6 * x40 + 90 x6 * x42 - 78 x6 * x45 + 88 x6 * x48 - 84 x6 * x50
   - 40 x6 * x52 + 8 x6 * x54 - 66 x6 * x55 + 62 x6 * x57 - 30 x6 * x58
   + 38 x6 * x59 - 44 x6 * x60 - 18 x6 * x62 + 42 x6 * x64 - 44 x6 * x66
   - 32 x6 * x68 + 66 x6 * x70 + 98 x6 * x71 + 36 x6 * x72 + 78 x6 * x74
   + 80 x6 * x76 + 26 x6 * x77 + 14 x6 * x78 + 50 x6 * x82 + 42 x6 * x83
   + 68 x6 * x84 - 12 x6 * x85 + 92 x6 * x87 - 66 x6 * x88 - 50 x6 * x89
   + 39 x7 ^2 - 88 x7 * x11 + 84 x7 * x15 + 58 x7 * x16 - 90 x7 * x18
   - 82 x7 * x19 - 66 x7 * x24 + 18 x7 * x25 + 78 x7 * x26 - 12 x7 * x29
   - 2 x7 * x32 - 8 x7 * x33 - 82 x7 * x37 - 68 x7 * x38 - 38 x7 * x39
   - 56 x7 * x40 - 62 x7 * x43 - 78 x7 * x45 + 76 x7 * x46 + 60 x7 * x47
   + 26 x7 * x50 + 10 x7 * x52 + 56 x7 * x57 + 94 x7 * x60 + 72 x7 * x61
   - 70 x7 * x66 - 96 x7 * x67 - 12 x7 * x69 + 56 x7 * x72 - 20 x7 * x75
   - 94 x7 * x77 - 98 x7 * x80 - 68 x7 * x81 - 30 x7 * x84 + 52 x7 * x85
   + 18 x7 * x89 - 56 x8 * x10 - 52 x8 * x12 + 72 x8 * x13 + 16 x8 * x15
   + 50 x8 * x16 + 36 x8 * x20 + 98 x8 * x21 + 16 x8 * x22 + 6 x8 * x23
   + 64 x8 * x24 - 20 x8 * x25 - 92 x8 * x26 + 92 x8 * x27 + 22 x8 * x31
   - 74 x8 * x32 + 62 x8 * x33 + 58 x8 * x34 - 86 x8 * x35 - 16 x8 * x37
   + 40 x8 * x38 - 74 x8 * x43 + 80 x8 * x44 - 78 x8 * x46 - 8 x8 * x49
   - 46 x8 * x51 - 2 x8 * x52 - 36 x8 * x54 - 98 x8 * x56 - 28 x8 * x57
   + 14 x8 * x59 - 80 x8 * x60 - 14 x8 * x62 - 62 x8 * x64 + 42 x8 * x65
   + 68 x8 * x67 + 14 x8 * x74 - 58 x8 * x75 + 84 x8 * x76 - 70 x8 * x78
   + 36 x8 * x79 + 6 x8 * x84 + 40 x8 * x85 - 66 x8 * x87 - 56 x9 * x11
   + 54 x9 * x13 + 26 x9 * x14 + 34 x9 * x17 - 6 x9 * x21 + 36 x9 * x23
   - 92 x9 * x37 + 24 x9 * x39 - 8 x9 * x41 - 62 x9 * x43 - 2 x9 * x44
   + 98 x9 * x47 - 80 x9 * x50 - 46 x9 * x51 + 40 x9 * x52 + 4 x9 * x53
   + 14 x9 * x54 + 50 x9 * x55 - 16 x9 * x56 - 96 x9 * x63 + 64 x9 * x67
   + 66 x9 * x68 + 54 x9 * x69 - 38 x9 * x71 + 48 x9 * x73 + 2 x9 * x75
   - 80 x9 * x77 + 96 x9 * x83 - 38 x9 * x87 + 78 x9 * x88 + 70 x9 * x89
   + 42 x10 ^2 - 14 x10 * x11 - 70 x10 * x14 - 50 x10 * x19 + 60 x10 * x22
   - 40 x10 * x23 + 84 x10 * x25 + 44 x10 * x26 - 16 x10 * x27
   + 16 x10 * x28 + 90 x10 * x29 + 74 x10 * x30 + 80 x10 * x38
   + 12 x10 * x40 + 56 x10 * x43 - 76 x10 * x44 - 94 x10 * x45
   - 28 x10 * x48 + 46 x10 * x49 + 30 x10 * x50 - 98 x10 * x52
   + 72 x10 * x54 + 84 x10 * x55 + 46 x10 * x56 + 20 x10 * x60
   - 94 x10 * x62 - 78 x10 * x64 - 12 x10 * x65 + 56 x10 * x68
   - 32 x10 * x69 - 22 x10 * x70 - 12 x10 * x73 - 32 x10 * x74
   + 34 x10 * x76 - 54 x10 * x79 + 70 x10 * x80 - 92 x10 * x81
   - 24 x10 * x82 + 34 x10 * x84 + x11 ^2 - 22 x11 * x14 + 40 x11 * x22
   + 22 x11 * x24 - 28 x11 * x26 + 4 x11 * x28 - 64 x11 * x29
   + 54 x11 * x30 - 80 x11 * x31 - 20 x11 * x32 - 4 x11 * x35
   - 98 x11 * x36 - 26 x11 * x37 - 32 x11 * x38 + 18 x11 * x40
   + 68 x11 * x46 + 70 x11 * x47 + 56 x11 * x52 - 16 x11 * x54
   + 38 x11 * x56 - 10 x11 * x57 + 84 x11 * x58 - 90 x11 * x60
   - 14 x11 * x63 + 16 x11 * x64 + 20 x11 * x65 + 66 x11 * x70
   + 8 x11 * x71 - 90 x11 * x74 + 20 x11 * x77 - 84 x11 * x78
   - 24 x11 * x79 - 24 x11 * x81 + 92 x11 * x82 - 82 x11 * x85
   - 80 x11 * x87 + 8 x12 ^2 + 90 x12 * x14 - 28 x12 * x16 - 48 x12 * x17
   - 86 x12 * x20 + 2 x12 * x21 + 12 x12 * x24 + 68 x12 * x28
   + 64 x12 * x30 - 80 x12 * x33 + 32 x12 * x34 - 8 x12 * x35
   + 36 x12 * x37 - 86 x12 * x38 - 2 x12 * x39 - 82 x12 * x41
   - 94 x12 * x42 - 84 x12 * x46 - 28 x12 * x49 + 10 x12 * x51
   + 18 x12 * x56 + 20 x12 * x57 - 50 x12 * x59 - 92 x12 * x69
   + 6 x12 * x70 - 92 x12 * x71 - 16 x12 * x74 + 72 x12 * x75
   + 60 x12 * x78 - 14 x12 * x79 + 56 x12 * x80 + 6 x12 * x82
   - 44 x12 * x83 + 4 x12 * x84 + 4 x12 * x87 + 23 x13 ^2 - 20 x13 * x17
   + 38 x13 * x18 - 12 x13 * x20 - 36 x13 * x25 + 44 x13 * x30
   - 58 x13 * x31 + 60 x13 * x32 + 74 x13 * x34 + 56 x13 * x36
   + 30 x13 * x40 - 96 x13 * x41 - 20 x13 * x44 - 88 x13 * x46
   + 10 x13 * x47 + 78 x13 * x49 + 98 x13 * x50 - 84 x13 * x51
   + 16 x13 * x53 + 28 x13 * x55 + 20 x13 * x59 + 98 x13 * x63
   - 22 x13 * x66 + 34 x13 * x69 - 66 x13 * x70 - 78 x13 * x72
   - 60 x13 * x74 - 98 x13 * x75 - 28 x13 * x76 + 68 x13 * x77
   + 22 x13 * x80 + 88 x13 * x86 - 16 x13 * x89 - 34 x14 * x17
   + 60 x14 * x19 + 70 x14 * x21 - 4 x14 * x23 - 48 x14 * x26 - 4 x14 * x28
   - 82 x14 * x30 + 22 x14 * x34 - 4 x14 * x36 + 76 x14 * x39
   + 84 x14 * x40 - 92 x14 * x44 + 26 x14 * x47 - 8 x14 * x48
   + 20 x14 * x49 - 64 x14 * x50 + 42 x14 * x52 - 78 x14 * x54
   - 68 x14 * x55 + 44 x14 * x56 + 38 x14 * x58 + 14 x14 * x60
   - 30 x14 * x62 - 54 x14 * x64 - 60 x14 * x65 + 62 x14 * x66
   + 40 x14 * x67 + 58 x14 * x69 + 48 x14 * x70 + 44 x14 * x74
   + 94 x14 * x75 - 18 x14 * x78 + 40 x14 * x79 + 10 x14 * x80
   + 58 x14 * x81 + 84 x14 * x82 + 38 x14 * x87 - 52 x15 * x18
   + 42 x15 * x19 + 52 x15 * x20 + 52 x15 * x21 + 44 x15 * x23
   - 98 x15 * x25 - 16 x15 * x27 + 16 x15 * x28 + 60 x15 * x29
   - 44 x15 * x31 + 88 x15 * x32 - 98 x15 * x35 + 52 x15 * x37
   + 16 x15 * x41 + 36 x15 * x42 + 40 x15 * x44 + 28 x15 * x45
   + 78 x15 * x46 - 30 x15 * x48 + 70 x15 * x50 + 28 x15 * x51
   - 66 x15 * x54 + 66 x15 * x55 + 32 x15 * x56 - 42 x15 * x58
   - 74 x15 * x59 + 86 x15 * x60 - 20 x15 * x61 + 40 x15 * x62
   - 22 x15 * x64 + 34 x15 * x65 + 86 x15 * x68 - 14 x15 * x70
   + 60 x15 * x71 + 34 x15 * x72 - 84 x15 * x74 + 88 x15 * x77
   - 34 x15 * x79 - 68 x15 * x80 - 86 x15 * x81 - 84 x15 * x86
   + 74 x15 * x87 - 12 x15 * x88 + 96 x15 * x89 + 4 x16 ^2 + 18 x16 * x17
   - 52 x16 * x18 + 24 x16 * x19 + 14 x16 * x20 + 22 x16 * x21
   + 54 x16 * x22 - 42 x16 * x23 + 20 x16 * x26 - 26 x16 * x28
   - 22 x16 * x29 + 84 x16 * x31 + 78 x16 * x33 + 50 x16 * x35
   + 54 x16 * x36 + 60 x16 * x37 + 88 x16 * x40 + 92 x16 * x44
   - 24 x16 * x45 - 8 x16 * x46 + 74 x16 * x48 + 58 x16 * x49
   + 66 x16 * x50 + 74 x16 * x51 + 18 x16 * x53 + 18 x16 * x54
   - 14 x16 * x56 + 16 x16 * x57 + 66 x16 * x58 + 4 x16 * x60
   + 52 x16 * x61 - 32 x16 * x64 + 34 x16 * x69 - 76 x16 * x70
   - 46 x16 * x72 - 86 x16 * x74 + 14 x16 * x75 + 20 x16 * x76
   + 52 x16 * x78 - 84 x16 * x79 - 42 x16 * x81 - 60 x16 * x85
   - 26 x16 * x87 - 28 x17 ^2 - 58 x17 * x19 + 42 x17 * x21 - 58 x17 * x23
   - 16 x17 * x24 + 6 x17 * x27 + 84 x17 * x28 - 24 x17 * x30
   - 34 x17 * x32 + 52 x17 * x33 - 92 x17 * x41 + 88 x17 * x42
   + 6 x17 * x44 + 8 x17 * x47 + 82 x17 * x48 + 20 x17 * x49 + 66 x17 * x51
   - 88 x17 * x54 - 94 x17 * x57 + 66 x17 * x60 - 76 x17 * x61
   - 84 x17 * x62 - 70 x17 * x63 - 76 x17 * x65 + 14 x17 * x68
   + 4 x17 * x69 + 80 x17 * x72 + 76 x17 * x73 - 80 x17 * x74
   - 82 x17 * x79 - 46 x17 * x81 + 4 x17 * x83 + 20 x17 * x84
   + 54 x17 * x85 + 80 x17 * x87 + 60 x17 * x88 - 42 x17 * x89
   - 38 x18 * x19 + 8 x18 * x22 - 66 x18 * x23 + 8 x18 * x28 + 76 x18 * x30
   - 16 x18 * x34 - 56 x18 * x38 + 16 x18 * x42 + 70 x18 * x44
   - 62 x18 * x45 + 58 x18 * x48 + 54 x18 * x49 - 12 x18 * x59
   - 78 x18 * x60 + 16 x18 * x61 - 60 x18 * x64 - 36 x18 * x68
   - 54 x18 * x69 - 88 x18 * x70 + 2 x18 * x72 - 68 x18 * x74
   + 50 x18 * x75 + 18 x18 * x77 - 48 x18 * x80 + 32 x18 * x84
   + 22 x18 * x86 - 94 x18 * x89 + 14 x19 * x23 - 16 x19 * x25
   - 24 x19 * x27 + 32 x19 * x28 - 80 x19 * x29 - 82 x19 * x30
   - 76 x19 * x31 + 10 x19 * x32 - 34 x19 * x37 - 30 x19 * x39
   + 16 x19 * x40 - 82 x19 * x42 - 62 x19 * x43 - 80 x19 * x44
   - 82 x19 * x47 + 72 x19 * x49 + 46 x19 * x53 - 74 x19 * x56
   + 90 x19 * x60 - 50 x19 * x61 - 92 x19 * x62 - 46 x19 * x66
   - 78 x19 * x67 - 82 x19 * x69 + 10 x19 * x71 + 2 x19 * x72
   - 80 x19 * x74 - 84 x19 * x76 - 78 x19 * x77 + 92 x19 * x78
   - 40 x19 * x79 + 22 x19 * x80 - 76 x19 * x81 - 38 x19 * x83
   - 58 x19 * x84 - 98 x19 * x85 + 32 x19 * x86 + 49 x20 ^2 + 44 x20 * x22
   - 22 x20 * x24 - 36 x20 * x25 + 74 x20 * x27 - 92 x20 * x30
   - 32 x20 * x33 - 54 x20 * x34 - 52 x20 * x35 + 44 x20 * x36
   - 76 x20 * x37 + 52 x20 * x39 + 52 x20 * x40 + 24 x20 * x46
   + 64 x20 * x47 + 36 x20 * x52 - 8 x20 * x55 + 94 x20 * x56
   + 16 x20 * x57 + 2 x20 * x60 + 86 x20 * x64 + 96 x20 * x66
   + 96 x20 * x67 - 96 x20 * x68 + 52 x20 * x69 - 56 x20 * x70
   + 26 x20 * x72 - 2 x20 * x74 + 24 x20 * x77 + 80 x20 * x78
   - 78 x20 * x83 - 94 x20 * x89 - 46 x21 * x22 + 2 x21 * x23
   + 92 x21 * x25 - 32 x21 * x27 - 68 x21 * x28 - 84 x21 * x33
   + 14 x21 * x36 + 22 x21 * x37 - 4 x21 * x38 + 92 x21 * x39
   - 86 x21 * x40 - 24 x21 * x41 + 6 x21 * x42 + 8 x21 * x43 - 88 x21 * x44
   + 58 x21 * x45 - 16 x21 * x47 - 44 x21 * x48 - 48 x21 * x49
   + 92 x21 * x54 + 98 x21 * x55 + 94 x21 * x57 + 72 x21 * x59
   + 64 x21 * x61 + 28 x21 * x63 + 80 x21 * x65 + 6 x21 * x66 + 8 x21 * x67
   + 74 x21 * x70 - 78 x21 * x73 + 84 x21 * x75 - 38 x21 * x79
   + 66 x21 * x80 + 48 x21 * x81 + 76 x21 * x82 + 4 x21 * x85
   + 64 x21 * x87 - 20 x22 ^2 + 82 x22 * x24 - 42 x22 * x25 + 92 x22 * x28
   - 10 x22 * x29 - 14 x22 * x30 - 72 x22 * x32 - 24 x22 * x36
   + 30 x22 * x40 + 16 x22 * x41 - 66 x22 * x43 - 18 x22 * x44
   + 22 x22 * x45 - 90 x22 * x46 + 62 x22 * x47 - 92 x22 * x48
   + 16 x22 * x49 - 20 x22 * x53 - 40 x22 * x54 + 94 x22 * x55
   + 2 x22 * x59 + 90 x22 * x61 - 58 x22 * x62 + 50 x22 * x63
   + 70 x22 * x64 - 60 x22 * x65 - 26 x22 * x69 - 20 x22 * x70
   - 14 x22 * x73 - 18 x22 * x74 - 70 x22 * x75 + 82 x22 * x76
   - 76 x22 * x78 - 26 x22 * x80 - 30 x22 * x82 + 98 x22 * x83
   - 12 x22 * x84 + 2 x22 * x85 + 94 x22 * x86 + 76 x22 * x87
   + 16 x22 * x88 - 27 x23 ^2 - 96 x23 * x26 - 12 x23 * x27 + 48 x23 * x28
   - 6 x23 * x29 - 54 x23 * x31 - 52 x23 * x32 + 28 x23 * x33
   + 20 x23 * x35 + 28 x23 * x39 - 42 x23 * x42 - 90 x23 * x43
   - 2 x23 * x44 + 40 x23 * x45 - 80 x23 * x46 - 76 x23 * x47
   + 86 x23 * x50 + 32 x23 * x53 + 98 x23 * x58 - 80 x23 * x60
   + 50 x23 * x62 - 30 x23 * x63 + 92 x23 * x66 - 78 x23 * x67
   + 46 x23 * x68 + 40 x23 * x69 - 74 x23 * x73 - 76 x23 * x74
   - 68 x23 * x76 + 90 x23 * x78 - 38 x23 * x80 + 74 x23 * x82
   + 88 x23 * x85 - 76 x23 * x87 - 25 x24 ^2 - 26 x24 * x27 - 88 x24 * x28
   - 92 x24 * x29 + 42 x24 * x32 - 60 x24 * x33 - 52 x24 * x34
   - 60 x24 * x35 - 50 x24 * x36 - 70 x24 * x38 + 44 x24 * x40
   - 28 x24 * x42 - 48 x24 * x46 - 34 x24 * x51 + 30 x24 * x54
   + 60 x24 * x56 - 32 x24 * x58 + 82 x24 * x59 + 70 x24 * x61
   - 44 x24 * x65 + 64 x24 * x66 + 64 x24 * x68 + 36 x24 * x70
   - 68 x24 * x75 - 56 x24 * x76 + 28 x24 * x78 - 10 x24 * x79
   + 58 x24 * x80 - 90 x24 * x83 + 72 x24 * x84 + 14 x24 * x85
   + 14 x24 * x86 - 44 x24 * x88 + 30 x25 ^2 - 80 x25 * x31 - 54 x25 * x34
   - 74 x25 * x35 - 80 x25 * x38 - 54 x25 * x39 + 2 x25 * x40 + 6 x25 * x41
   + 18 x25 * x43 - 54 x25 * x46 - 40 x25 * x47 + 16 x25 * x48
   + 70 x25 * x49 + 58 x25 * x51 - 18 x25 * x52 + 38 x25 * x54
   + 56 x25 * x56 - 14 x25 * x59 - 14 x25 * x60 - 10 x25 * x61
   - 62 x25 * x63 - 80 x25 * x66 - 14 x25 * x68 + 20 x25 * x72
   + 8 x25 * x73 - 22 x25 * x74 - 90 x25 * x76 + 24 x25 * x78
   - 46 x25 * x85 + 64 x25 * x86 - 80 x25 * x87 + 54 x26 * x29
   + 8 x26 * x34 - 78 x26 * x35 - 54 x26 * x40 - 58 x26 * x49
   + 50 x26 * x52 + 28 x26 * x53 + 28 x26 * x54 - 96 x26 * x55
   - 8 x26 * x56 + 66 x26 * x57 - 68 x26 * x59 - 46 x26 * x60
   - 78 x26 * x63 - 36 x26 * x65 - 64 x26 * x66 - 58 x26 * x69
   + 92 x26 * x73 + 66 x26 * x74 - 54 x26 * x75 + 74 x26 * x76
   + 54 x26 * x77 - 46 x26 * x78 - 50 x26 * x79 - 38 x26 * x84
   + 74 x26 * x85 - 62 x26 * x87 - 30 x26 * x88 + 98 x26 * x89 + 12 x27 ^2
   + 84 x27 * x32 - 72 x27 * x33 - 58 x27 * x34 - 8 x27 * x36
   + 44 x27 * x37 + 98 x27 * x38 - 42 x27 * x39 + 30 x27 * x40
   - 88 x27 * x42 + 68 x27 * x43 - 4 x27 * x44 - 48 x27 * x45
   - 44 x27 * x48 - 86 x27 * x49 - 90 x27 * x50 + 28 x27 * x51
   + 68 x27 * x52 - 34 x27 * x53 + 34 x27 * x54 + 72 x27 * x55
   + 82 x27 * x56 - 8 x27 * x58 + 56 x27 * x59 - 42 x27 * x60
   + 86 x27 * x62 + 64 x27 * x63 + 42 x27 * x68 - 78 x27 * x69
   + 20 x27 * x74 + 40 x27 * x76 - 62 x27 * x78 + 52 x27 * x79
   + 6 x27 * x81 - 88 x27 * x82 - 34 x27 * x83 - 18 x27 * x85
   + 12 x27 * x87 + 96 x27 * x88 + 64 x28 * x29 - 56 x28 * x30
   + 52 x28 * x31 + 74 x28 * x33 + 90 x28 * x34 - 6 x28 * x36
   + 48 x28 * x37 - 66 x28 * x38 - 92 x28 * x41 + 72 x28 * x46
   + 6 x28 * x48 - 58 x28 * x49 + 74 x28 * x51 - 88 x28 * x52
   - 36 x28 * x56 + 46 x28 * x57 - 92 x28 * x61 - 88 x28 * x63
   + 22 x28 * x64 - 6 x28 * x65 - 78 x28 * x69 - 14 x28 * x70
   + 54 x28 * x71 + 6 x28 * x72 - 84 x28 * x73 + 30 x28 * x77
   - 68 x28 * x79 - 28 x28 * x81 + 20 x28 * x82 + 64 x28 * x85
   + 20 x28 * x86 - 24 x28 * x88 - 62 x28 * x89 + 90 x29 * x33
   - 40 x29 * x34 + 72 x29 * x35 + 42 x29 * x38 - 12 x29 * x39
   + 62 x29 * x43 - 80 x29 * x44 - 6 x29 * x47 + 2 x29 * x48 - 22 x29 * x51
   + 20 x29 * x54 - 74 x29 * x56 - 10 x29 * x57 - 76 x29 * x58
   + 38 x29 * x62 + 38 x29 * x64 - 36 x29 * x65 + 58 x29 * x66
   + 78 x29 * x67 + 46 x29 * x68 + 24 x29 * x69 - 40 x29 * x70
   - 34 x29 * x75 + 20 x29 * x77 - 28 x29 * x78 - 84 x29 * x79
   + 62 x29 * x80 + 12 x29 * x85 + 50 x29 * x89 + 54 x30 * x31
   + 74 x30 * x32 + 26 x30 * x38 - 92 x30 * x39 - 56 x30 * x40
   + 10 x30 * x41 - 98 x30 * x44 + 8 x30 * x47 - 98 x30 * x48
   - 10 x30 * x49 - 52 x30 * x50 - 78 x30 * x51 - 78 x30 * x54
   - 44 x30 * x57 - 56 x30 * x59 - 30 x30 * x60 - 64 x30 * x64
   + 30 x30 * x66 - 64 x30 * x67 + 2 x30 * x68 - 80 x30 * x69
   + 92 x30 * x70 + 50 x30 * x71 - 6 x30 * x72 + 36 x30 * x73
   + 98 x30 * x74 - 62 x30 * x75 + 88 x30 * x76 - 10 x30 * x77
   - 6 x30 * x78 - 8 x30 * x79 - 36 x30 * x80 + 20 x30 * x82 - 30 x30 * x83
   - 76 x30 * x89 - 28 x31 * x33 - 20 x31 * x35 - 88 x31 * x38
   - 92 x31 * x40 - 10 x31 * x42 + 80 x31 * x43 - 94 x31 * x46
   - 36 x31 * x48 - 62 x31 * x49 - 82 x31 * x50 - 80 x31 * x51
   - 54 x31 * x55 + 74 x31 * x56 + 30 x31 * x58 - 62 x31 * x60
   - 14 x31 * x65 + 34 x31 * x66 - 34 x31 * x67 - 34 x31 * x68
   - 52 x31 * x70 - 28 x31 * x71 + 68 x31 * x72 - 90 x31 * x75
   - 54 x31 * x79 - 10 x31 * x82 - 28 x31 * x89 + 54 x32 * x33
   + 70 x32 * x34 + 18 x32 * x35 + 44 x32 * x37 - 52 x32 * x39
   + 40 x32 * x42 - 14 x32 * x44 - 58 x32 * x48 + 92 x32 * x49
   - 8 x32 * x53 - 56 x32 * x57 + 62 x32 * x58 + 8 x32 * x59 + 74 x32 * x60
   - 50 x32 * x63 + 68 x32 * x65 - 58 x32 * x69 - 72 x32 * x72
   + 76 x32 * x75 + 60 x32 * x77 - 56 x32 * x78 + 38 x32 * x79
   + 84 x32 * x80 + 18 x32 * x81 - 14 x32 * x82 - 50 x32 * x85
   - 46 x32 * x86 - 72 x32 * x88 - 60 x32 * x89 - 12 x33 ^2 - 64 x33 * x39
   - 46 x33 * x42 + 18 x33 * x44 + 22 x33 * x46 - 24 x33 * x47
   + 36 x33 * x48 - 86 x33 * x49 + 48 x33 * x50 + 86 x33 * x52
   + 18 x33 * x56 - 38 x33 * x57 + 12 x33 * x58 + 64 x33 * x62
   + 4 x33 * x63 - 40 x33 * x67 + 86 x33 * x70 - 52 x33 * x71
   + 54 x33 * x74 + 94 x33 * x77 - 60 x33 * x80 - 30 x33 * x81
   - 10 x33 * x82 + 34 x33 * x84 - 62 x33 * x87 + 80 x33 * x88
   + 34 x33 * x89 - 5 x34 ^2 + 28 x34 * x39 + 62 x34 * x40 + 12 x34 * x42
   - 6 x34 * x44 - 92 x34 * x45 + 38 x34 * x46 + 34 x34 * x47
   - 76 x34 * x48 - 18 x34 * x49 - 14 x34 * x50 + 44 x34 * x52
   + 56 x34 * x55 - 84 x34 * x57 - 76 x34 * x58 - 2 x34 * x60
   - 40 x34 * x61 - 86 x34 * x62 + 56 x34 * x63 + 68 x34 * x67
   - 92 x34 * x69 + 96 x34 * x71 - 42 x34 * x74 + 82 x34 * x76
   - 80 x34 * x79 - 62 x34 * x83 - 34 x34 * x84 - 6 x34 * x85
   + 54 x34 * x86 - 28 x35 * x36 - 56 x35 * x38 + 20 x35 * x39
   + 56 x35 * x43 - 52 x35 * x44 - 72 x35 * x45 + 88 x35 * x46
   - 88 x35 * x48 + 54 x35 * x56 - 30 x35 * x57 - 92 x35 * x58
   - 22 x35 * x59 + 78 x35 * x69 + 20 x35 * x70 + 28 x35 * x72
   - 86 x35 * x73 - 6 x35 * x76 + 54 x35 * x77 + 58 x35 * x78
   - 38 x35 * x79 + 98 x35 * x81 + 72 x35 * x83 - 52 x35 * x85
   - 26 x35 * x89 - 17 x36 ^2 - 46 x36 * x38 - 4 x36 * x39 + 46 x36 * x40
   + 56 x36 * x41 + 40 x36 * x43 - 66 x36 * x48 - 80 x36 * x49
   + 40 x36 * x51 + 46 x36 * x52 + 24 x36 * x57 + 80 x36 * x58
   - 98 x36 * x60 + 46 x36 * x61 + 86 x36 * x65 - 36 x36 * x67
   - 16 x36 * x68 + 98 x36 * x69 - 70 x36 * x71 + 66 x36 * x72
   + 74 x36 * x74 + 76 x36 * x75 + 72 x36 * x77 - 62 x36 * x78
   - 86 x36 * x79 + 52 x36 * x86 - 80 x36 * x87 + 94 x36 * x88 + 24 x37 ^2
   + 16 x37 * x39 + 68 x37 * x41 + 60 x37 * x45 + 4 x37 * x47
   - 48 x37 * x49 - 32 x37 * x50 + 94 x37 * x51 + 26 x37 * x61
   - 40 x37 * x62 - 56 x37 * x64 - 80 x37 * x66 - 8 x37 * x68
   + 54 x37 * x69 - 72 x37 * x70 - 38 x37 * x71 + 28 x37 * x73
   - 90 x37 * x75 - 60 x37 * x77 - 84 x37 * x78 + 68 x37 * x79
   + 44 x37 * x82 - 82 x37 * x83 - 98 x37 * x85 + 44 x37 * x86
   + 66 x38 * x41 - 14 x38 * x42 - 22 x38 * x44 - 68 x38 * x45
   - 74 x38 * x46 + 66 x38 * x48 - 20 x38 * x50 + 54 x38 * x51
   - 44 x38 * x52 + 38 x38 * x53 - 28 x38 * x54 + 14 x38 * x55
   - 64 x38 * x56 + 50 x38 * x60 + 16 x38 * x61 - 40 x38 * x64
   - 82 x38 * x67 - 96 x38 * x71 - 36 x38 * x73 + 86 x38 * x77
   - 46 x38 * x79 + 78 x38 * x81 - 36 x38 * x82 + 13 x39 ^2 + 44 x39 * x40
   + 78 x39 * x42 - 64 x39 * x43 - 28 x39 * x45 - 84 x39 * x47
   + 24 x39 * x48 + 24 x39 * x49 - 26 x39 * x55 + 70 x39 * x56
   + 52 x39 * x57 + 46 x39 * x59 - 80 x39 * x60 + 46 x39 * x61
   - 82 x39 * x62 + 82 x39 * x63 + 62 x39 * x64 + 82 x39 * x65
   + 14 x39 * x67 - 86 x39 * x68 - 96 x39 * x70 - 58 x39 * x71
   + 70 x39 * x73 + 80 x39 * x74 + 6 x39 * x79 - 46 x39 * x80
   + 86 x39 * x81 - 6 x39 * x84 - 12 x39 * x85 + 98 x39 * x86
   - 30 x39 * x87 + 48 x39 * x88 + 48 x39 * x89 - 9 x40 ^2 - 70 x40 * x41
   + 34 x40 * x42 - 80 x40 * x45 + 28 x40 * x47 + 70 x40 * x49
   - 78 x40 * x52 + 4 x40 * x54 - 22 x40 * x55 - 86 x40 * x58
   - 96 x40 * x63 - 24 x40 * x64 + 64 x40 * x65 - 96 x40 * x67
   - 52 x40 * x68 - 60 x40 * x69 - 90 x40 * x72 - 30 x40 * x75
   + 50 x40 * x80 - 24 x40 * x82 - 96 x40 * x84 + 54 x40 * x85
   + 2 x40 * x89 - 44 x41 ^2 + 46 x41 * x45 - 4 x41 * x47 - 10 x41 * x48
   - 6 x41 * x49 - 8 x41 * x50 - 80 x41 * x54 + 72 x41 * x59 - 72 x41 * x60
   + 4 x41 * x65 - 60 x41 * x66 - 80 x41 * x67 - 98 x41 * x68
   + 64 x41 * x69 + 92 x41 * x73 - 70 x41 * x75 - 28 x41 * x76
   - 54 x41 * x79 - 76 x41 * x80 - 52 x41 * x84 - 60 x41 * x85
   + 50 x41 * x86 + 34 x41 * x87 + 94 x41 * x88 - 44 x41 * x89 - 17 x42 ^2
   + 44 x42 * x43 - 26 x42 * x44 + 92 x42 * x47 - 6 x42 * x50 + 2 x42 * x52
   - 82 x42 * x53 + 32 x42 * x54 + 32 x42 * x55 - 30 x42 * x57
   - 40 x42 * x58 + 58 x42 * x61 + 4 x42 * x62 - 34 x42 * x64
   - 36 x42 * x65 + 18 x42 * x66 - 94 x42 * x68 + 88 x42 * x70
   + 14 x42 * x71 + 82 x42 * x74 + 76 x42 * x75 + 56 x42 * x77
   + 76 x42 * x79 + 86 x42 * x82 - 80 x42 * x83 + 86 x42 * x84
   - 40 x42 * x86 + 58 x42 * x88 + 30 x42 * x89 - 58 x43 * x44
   + 92 x43 * x45 + 62 x43 * x46 + 50 x43 * x47 + 96 x43 * x48
   + 78 x43 * x50 - 30 x43 * x54 + 60 x43 * x56 + 22 x43 * x57
   + 84 x43 * x59 + 30 x43 * x61 + 34 x43 * x63 - 68 x43 * x64
   + 68 x43 * x68 - 2 x43 * x69 - 70 x43 * x70 + 48 x43 * x73
   - 78 x43 * x76 + 16 x43 * x77 + 54 x43 * x79 + 24 x43 * x83
   + 16 x43 * x84 + 84 x43 * x86 - 6 x43 * x87 - 72 x43 * x89 - 7 x44 ^2
   - 92 x44 * x45 - 64 x44 * x46 - 24 x44 * x50 + 8 x44 * x52
   + 60 x44 * x56 - 20 x44 * x58 - 50 x44 * x59 - 58 x44 * x60
   - 84 x44 * x61 - 34 x44 * x63 + 8 x44 * x67 + 26 x44 * x68
   - 50 x44 * x69 + 12 x44 * x71 + 10 x44 * x72 - 4 x44 * x73
   + 52 x44 * x75 - 60 x44 * x78 - 90 x44 * x81 - 94 x44 * x85
   + 62 x44 * x86 + 32 x44 * x89 + 18 x45 ^2 + 64 x45 * x47 - 64 x45 * x48
   - 36 x45 * x49 + 14 x45 * x50 + 98 x45 * x51 - 10 x45 * x53
   - 76 x45 * x54 + 92 x45 * x55 - 20 x45 * x56 - 32 x45 * x57
   - 92 x45 * x59 - 22 x45 * x60 - 56 x45 * x61 + 78 x45 * x62
   + 94 x45 * x63 + 46 x45 * x67 + 40 x45 * x68 - 70 x45 * x69
   + 66 x45 * x70 + 58 x45 * x71 + 70 x45 * x73 - 52 x45 * x74
   + 16 x45 * x76 - 44 x45 * x78 + 24 x45 * x79 + 26 x45 * x80
   + 56 x45 * x82 + 50 x45 * x83 - 74 x45 * x84 - 52 x45 * x87
   - 66 x45 * x89 + 14 x46 ^2 - 84 x46 * x51 + 40 x46 * x52 + 96 x46 * x53
   - 14 x46 * x55 + 92 x46 * x59 - 24 x46 * x60 + 20 x46 * x61
   + 88 x46 * x62 - 30 x46 * x63 - 44 x46 * x65 - 18 x46 * x66
   - 48 x46 * x70 - 16 x46 * x73 - 18 x46 * x74 - 8 x46 * x76
   + 96 x46 * x77 + 38 x46 * x80 - 6 x46 * x82 - 62 x46 * x83
   - 68 x46 * x84 + 20 x46 * x86 - 96 x46 * x88 + x47 ^2 + 20 x47 * x51
   + 6 x47 * x52 - 56 x47 * x55 + 24 x47 * x57 - 72 x47 * x58
   + 94 x47 * x61 + 24 x47 * x62 - 46 x47 * x63 - 34 x47 * x65
   + 22 x47 * x66 + 20 x47 * x67 - 94 x47 * x70 - 40 x47 * x72
   - 16 x47 * x74 + 2 x47 * x75 + 90 x47 * x76 + 50 x47 * x81
   - 52 x47 * x85 - 80 x47 * x87 + 72 x47 * x89 + 98 x48 * x49
   + 20 x48 * x50 + 90 x48 * x51 + 92 x48 * x52 + 98 x48 * x54
   + 20 x48 * x57 - 70 x48 * x58 - 4 x48 * x61 + 42 x48 * x62
   - 82 x48 * x63 - 34 x48 * x67 - 82 x48 * x68 + 44 x48 * x71
   + 70 x48 * x72 + 40 x48 * x73 + 2 x48 * x74 + 8 x48 * x76 - 24 x48 * x77
   + 80 x48 * x81 + 2 x48 * x82 + 86 x48 * x83 + 30 x48 * x84 + 8 x48 * x89
   - 3 x49 ^2 - 74 x49 * x51 - 86 x49 * x57 + 90 x49 * x58 + 76 x49 * x59
   - 56 x49 * x62 + 62 x49 * x63 - 12 x49 * x65 + 6 x49 * x66
   + 24 x49 * x68 - 52 x49 * x71 - 20 x49 * x72 + 20 x49 * x73
   - 10 x49 * x78 + 76 x49 * x79 - 88 x49 * x82 + 92 x49 * x89 - 2 x50 ^2
   + 74 x50 * x53 + 74 x50 * x54 - 88 x50 * x55 - 56 x50 * x59
   - 60 x50 * x60 + 78 x50 * x61 - 80 x50 * x71 - 54 x50 * x73
   + 12 x50 * x77 + 12 x50 * x79 + 88 x50 * x81 + 88 x50 * x83
   - 6 x50 * x84 + 56 x50 * x87 + 60 x50 * x88 - 84 x51 * x52
   + 56 x51 * x56 + 46 x51 * x57 - 10 x51 * x60 + 6 x51 * x61 - 4 x51 * x63
   - 50 x51 * x65 + 12 x51 * x66 - 56 x51 * x67 + 4 x51 * x69
   - 22 x51 * x70 - 48 x51 * x72 + 64 x51 * x73 - 76 x51 * x75
   - 82 x51 * x78 + 18 x51 * x79 - 64 x51 * x82 + 8 x51 * x85
   - 40 x52 * x54 - 74 x52 * x56 - 60 x52 * x57 + 14 x52 * x58
   - 70 x52 * x59 + 80 x52 * x60 + 14 x52 * x63 + 22 x52 * x64
   + 88 x52 * x65 + 90 x52 * x68 - 92 x52 * x70 + 32 x52 * x72
   + 94 x52 * x76 - 28 x52 * x77 + 44 x52 * x78 - 64 x52 * x80
   + 26 x52 * x82 + 2 x52 * x85 + 46 x52 * x86 - 78 x52 * x87
   + 20 x52 * x88 + 20 x52 * x89 + 72 x53 * x54 + 68 x53 * x57
   - 32 x53 * x58 + 20 x53 * x62 - 88 x53 * x65 + 70 x53 * x68
   - 42 x53 * x72 - 40 x53 * x73 - 12 x53 * x74 + 76 x53 * x78
   + 10 x53 * x80 - 38 x53 * x81 + 42 x53 * x82 + 78 x53 * x86
   + 94 x53 * x88 - 10 x53 * x89 - 66 x54 * x55 - 80 x54 * x56
   + 10 x54 * x57 - 52 x54 * x61 + 66 x54 * x62 + 78 x54 * x63
   - 34 x54 * x64 - 28 x54 * x65 + 98 x54 * x68 + 84 x54 * x69
   + 82 x54 * x70 - 70 x54 * x71 + 36 x54 * x72 + 52 x54 * x76
   + 14 x54 * x78 - 50 x54 * x79 + 70 x54 * x84 + 56 x54 * x85
   + 76 x55 * x56 + 80 x55 * x57 + 64 x55 * x58 - 84 x55 * x59
   - 34 x55 * x60 - 32 x55 * x61 - 32 x55 * x63 + 28 x55 * x64
   + 40 x55 * x68 - 26 x55 * x73 - 96 x55 * x74 + 86 x55 * x75
   - 76 x55 * x80 - 90 x55 * x83 + 28 x55 * x86 - 58 x55 * x89
   + 86 x56 * x59 + 94 x56 * x61 + 28 x56 * x64 - 90 x56 * x65
   + 86 x56 * x66 - 2 x56 * x69 - 64 x56 * x73 + 72 x56 * x74 + 8 x56 * x75
   - 80 x56 * x78 + 94 x56 * x85 - 68 x56 * x86 - 74 x56 * x87
   + 56 x56 * x89 + 16 x57 * x58 - 30 x57 * x64 - 32 x57 * x66
   - 52 x57 * x67 + 70 x57 * x68 + 42 x57 * x69 + 40 x57 * x72
   + 94 x57 * x73 - 2 x57 * x76 - 38 x57 * x78 - 66 x57 * x79
   + 70 x57 * x80 + 18 x57 * x83 + 46 x57 * x86 - 86 x57 * x87
   - 84 x57 * x88 + 82 x58 * x59 - 82 x58 * x63 - 38 x58 * x68
   + 18 x58 * x70 - 72 x58 * x73 - 44 x58 * x75 - 20 x58 * x76
   - 64 x58 * x79 + 52 x58 * x80 - 34 x58 * x81 - 58 x58 * x83
   - 28 x58 * x84 - 30 x59 ^2 - 10 x59 * x60 + 44 x59 * x61 - 90 x59 * x62
   - 68 x59 * x65 + 90 x59 * x66 - 48 x59 * x67 - 76 x59 * x68
   + 44 x59 * x73 - 72 x59 * x75 + 94 x59 * x77 - 60 x59 * x78
   + 62 x59 * x81 - 64 x59 * x82 + 18 x59 * x83 + 34 x59 * x84
   + 84 x59 * x85 + 32 x59 * x86 - 44 x59 * x89 + 20 x60 ^2 - 4 x60 * x61
   + 84 x60 * x62 - 16 x60 * x63 - 40 x60 * x66 + 68 x60 * x68
   + 58 x60 * x69 + 8 x60 * x71 + 52 x60 * x72 + 96 x60 * x73
   - 62 x60 * x75 - 86 x60 * x76 - 28 x60 * x78 + 64 x60 * x80
   + 36 x60 * x81 - 20 x60 * x84 - 12 x60 * x88 - 60 x61 * x67
   + 92 x61 * x68 - 22 x61 * x72 + 42 x61 * x73 + 94 x61 * x75
   - 82 x61 * x77 + 62 x61 * x78 + 14 x61 * x80 + 32 x61 * x81
   - 86 x61 * x84 - 98 x61 * x86 - 62 x61 * x87 - 44 x62 * x63
   + 32 x62 * x64 + 94 x62 * x65 + 44 x62 * x66 + 2 x62 * x68
   - 64 x62 * x72 + 68 x62 * x73 - 16 x62 * x75 + 54 x62 * x76
   + 2 x62 * x77 - 56 x62 * x80 + 90 x62 * x82 + 70 x62 * x86
   + 46 x62 * x88 + 94 x62 * x89 - 8 x63 ^2 - 30 x63 * x65 + 12 x63 * x67
   + 70 x63 * x69 - 70 x63 * x71 + 62 x63 * x72 - 46 x63 * x74
   + 90 x63 * x76 + 92 x63 * x79 - 20 x63 * x81 + 6 x63 * x85
   + 80 x63 * x86 - 12 x63 * x89 + 44 x64 * x69 + 22 x64 * x72
   + 22 x64 * x75 + 24 x64 * x78 + 68 x64 * x80 + 88 x64 * x82
   - 88 x64 * x83 - 76 x64 * x87 + 28 x64 * x89 + 41 x65 ^2 + 26 x65 * x67
   + 60 x65 * x71 + 2 x65 * x72 - 8 x65 * x77 - 74 x65 * x80 + 90 x65 * x84
   - 2 x65 * x85 + 4 x65 * x87 + 64 x65 * x88 + 70 x66 * x68 - 46 x66 * x73
   - 10 x66 * x75 - 16 x66 * x81 - 26 x66 * x82 - 72 x66 * x84
   - 88 x66 * x88 + 86 x67 * x69 - 24 x67 * x71 + 54 x67 * x72
   + 32 x67 * x73 - 10 x67 * x80 - 62 x67 * x82 - 92 x67 * x83
   + 16 x67 * x85 + 48 x67 * x88 - 16 x68 * x70 + 88 x68 * x71
   - 62 x68 * x74 + 28 x68 * x75 + 44 x68 * x77 + 62 x68 * x78
   + 32 x68 * x79 + 94 x68 * x82 + 30 x68 * x83 - 66 x68 * x87
   - 62 x68 * x89 + 34 x69 * x74 + 92 x69 * x76 + 54 x69 * x79
   - 44 x69 * x82 - 50 x69 * x87 + 44 x69 * x88 + 46 x70 * x72
   + 28 x70 * x73 + 88 x70 * x74 + 98 x70 * x80 - 10 x70 * x82
   + 36 x70 * x86 + 42 x70 * x87 - 36 x70 * x89 - 88 x71 * x73
   - 32 x71 * x74 + 52 x71 * x78 - 98 x71 * x80 - 44 x71 * x81
   - 84 x71 * x82 - 68 x71 * x84 - 74 x71 * x87 + 66 x71 * x88
   - 78 x72 * x73 + 78 x72 * x76 - 92 x72 * x78 - 72 x72 * x79
   - 54 x72 * x80 - 96 x72 * x82 + 56 x72 * x86 + 32 x72 * x89 + 11 x73 ^2
   + 6 x73 * x74 - 94 x73 * x77 - 96 x73 * x78 + 82 x73 * x83
   - 64 x73 * x84 + 22 x73 * x87 - 10 x73 * x88 + 48 x73 * x89
   - 52 x74 * x75 + 42 x74 * x78 - 74 x74 * x79 + 38 x74 * x80
   + 34 x74 * x81 + 44 x74 * x82 - 76 x74 * x84 - 58 x74 * x86
   - 48 x74 * x87 + 50 x74 * x89 - 42 x75 ^2 - 54 x75 * x76 + 6 x75 * x77
   + 46 x75 * x78 - 52 x75 * x79 - 70 x75 * x80 - 60 x75 * x81
   + 22 x75 * x82 - 34 x75 * x85 + 98 x75 * x86 + 42 x75 * x88
   - 58 x76 * x78 + 64 x76 * x80 + 76 x76 * x82 + 92 x76 * x84
   - 64 x76 * x87 - 72 x76 * x89 - 60 x77 * x80 + 66 x77 * x81
   - 88 x77 * x83 + 64 x77 * x84 + 56 x77 * x85 - 48 x77 * x86
   + 82 x77 * x87 - 56 x77 * x88 - 46 x78 ^2 + 62 x78 * x79 + 38 x78 * x82
   + 72 x78 * x86 - 8 x78 * x88 + 62 x79 * x84 - 42 x79 * x86
   - 14 x79 * x87 + 52 x79 * x88 - 24 x79 * x89 - 49 x80 ^2 + 14 x80 * x82
   + 48 x80 * x84 + 34 x80 * x85 + 86 x80 * x86 + 60 x80 * x88
   - 72 x80 * x89 - 70 x81 * x83 + 14 x81 * x86 + 74 x81 * x87 + 30 x82 ^2
   - 80 x82 * x85 + 22 x82 * x87 + 6 x82 * x89 - 21 x83 ^2 + 16 x83 * x84
   + 68 x83 * x88 + 84 x83 * x89 + 72 x84 * x88 - 42 x84 * x89
   - 34 x85 * x87 + 32 x85 * x89 + 14 x86 * x87 + 70 x86 * x89
   - 4 x87 * x88 - 54 x87 * x89 - x88 ^2 + 42 x88 * x89 ] / 2 
Subject To
Bounds
 x0 <= 1
 x1 <= 1
 x2 <= 1
 x3 <= 1
 x4 <= 1
 x5 <= 1
 x6 <= 1
 x7 <= 1
 x8 <= 1
 x9 <= 1
 x10 <= 1
 x11 <= 1
 x12 <= 1
 x13 <= 1
 x14 <= 1
 x15 <= 1
 x16 <= 1
 x17 <= 1
 x18 <= 1
 x19 <= 1
 x20 <= 1
 x21 <= 1
 x22 <= 1
 x23 <= 1
 x24 <= 1
 x25 <= 1
 x26 <= 1
 x27 <= 1
 x28 <= 1
 x29 <= 1
 x30 <= 1
 x31 <= 1
 x32 <= 1
 x33 <= 1
 x34 <= 1
 x35 <= 1
 x36 <= 1
 x37 <= 1
 x38 <= 1
 x39 <= 1
 x40 <= 1
 x41 <= 1
 x42 <= 1
 x43 <= 1
 x44 <= 1
 x45 <= 1
 x46 <= 1
 x47 <= 1
 x48 <= 1
 x49 <= 1
 x50 <= 1
 x51 <= 1
 x52 <= 1
 x53 <= 1
 x54 <= 1
 x55 <= 1
 x56 <= 1
 x57 <= 1
 x58 <= 1
 x59 <= 1
 x60 <= 1
 x61 <= 1
 x62 <= 1
 x63 <= 1
 x64 <= 1
 x65 <= 1
 x66 <= 1
 x67 <= 1
 x68 <= 1
 x69 <= 1
 x70 <= 1
 x71 <= 1
 x72 <= 1
 x73 <= 1
 x74 <= 1
 x75 <= 1
 x76 <= 1
 x77 <= 1
 x78 <= 1
 x79 <= 1
 x80 <= 1
 x81 <= 1
 x82 <= 1
 x83 <= 1
 x84 <= 1
 x85 <= 1
 x86 <= 1
 x87 <= 1
 x88 <= 1
 x89 <= 1
End
